12 32 6 10
15 7 2 16 1 1 12 1 20 6 20 12 16 4 6 7 2 11 16 4 6 10 14 20 12 20 9 8 16 7 19 17 
6.13 3.64 4.99 2.14 0.87 3.91 2.59 2.99 5.11 0.02 6.98 3.44 4.1 1 2.16 0.88 7.66 7.8 0.86 5.63 2.49 4.14 5.71 2.99 0.46 4.6 4.31 2.31 6.13 1.03 1.04 7.25 
2.24 5.26 6.85 0.4 7.96 6.63 2.59 5.2 3.61 4.34 2.72 2.41 2.67 7.01 7.33 2.04 4.67 3.66 1.15 1.34 4.52 0.53 6.8 3.87 5.57 5.82 3.34 5.37 7.62 6 7.24 4.98 
5.98 2.52 6.85 4.27 4.03 0.34 1.52 3.11 5.62 3.8 5.18 0.02 2.53 0.8 3.04 1.73 5.58 3.6 0.33 6.63 5.98 5.64 6.25 2.57 6.8 6.56 7.63 1.34 1.26 4.83 5.86 3.5 
2.31 4.97 2.81 6.68 7.16 0.39 4.66 1.4 4.92 4.9 3.24 5.66 1.02 7.07 6.34 3.54 6.11 3.64 2.72 1.29 6.5 0.38 0.99 3.14 7.67 7.59 0.66 1.46 5.34 0.37 3.18 4.63 
6.76 6.64 0.36 3.49 0.36 4.77 1.57 5.21 0.31 2.43 2.39 3.23 2.63 4.9 0.51 3.47 2.25 4.58 3.76 4.65 4.15 4.3 6.36 0.11 5.23 3.13 5.74 1.59 7.04 4.37 2.32 1.23 
4.31 2.33 6.1 5.38 1.99 5.68 0.05 1.48 3.55 1.55 2.8 2.34 4.53 1.11 0.84 6.49 4.23 6.07 7.91 7.22 7.87 2.9 3.59 2.54 1.69 1.73 1.68 7.29 4.68 5.23 0.93 5.21 
4 4 4 4 4 4 4 4 4 4 4 4 4 4 4 4 4 4 4 4 4 4 4 4 4 4 4 4 4 4 4 4 
1.9 3.9 7.1 6.24 7.85 1.61 2.58 2.14 5.29 6.99 5.48 6.88 6.15 3.4 7.98 5.11 5.26 5.35 5.37 5.68 0.55 0.96 7.9 5.73 3.19 7.92 5.01 0.84 0.73 1.33 7.45 6.51 
2.32 3.22 2.1 7.66 5.63 5.59 6.79 3.57 1.83 0.72 7.12 1.82 7.03 3.6 7.45 2.38 6.96 3.44 7.32 6.92 3.73 5.88 0.1 4.31 0.44 4.45 2.54 3.62 6 0.38 7.25 2.87 
6.85 0.38 6.73 3.98 4.06 6.38 4.35 3.51 1.4 2.48 1.68 1.82 1.86 2.99 5.1 3.07 5.8 0.57 0.08 3.81 1.17 1.07 6.26 5.85 5.72 6.07 2.53 3.93 7.31 7.32 2.34 4.24 
3.24 5.24 2.45 0.69 6.13 0.95 2.34 0.09 4.86 2.57 1.12 4.32 4.02 4.89 4.61 1.31 5.05 6.86 2.31 4.19 2.35 7.89 5.95 3.28 2.11 1.88 0.81 7.53 2.13 2.36 2.39 2.8 
7.24 5.87 2.03 3.43 7.07 5.28 0.14 6.11 0.1 6.29 4.17 7.13 5.71 2.78 2.54 3.63 0.55 6.45 5.38 6.94 3.76 1.28 3.34 2.95 6.78 3.79 1.37 3.87 7.99 1 4.91 7.32 
1 1 1 1 1 1 1 1 1 1 1 1 1 1 1 1 1 1 1 1 1 1 1 1 1 1 1 1 1 1 1 1 
1 1 1 1 1 1 1 1 1 1 1 1 1 1 1 1 1 1 1 1 1 1 1 1 1 1 1 1 1 1 1 1 
1 1 1 1 1 1 1 1 1 1 1 1 1 1 1 1 1 1 1 1 1 1 1 1 1 1 1 1 1 1 1 1 
1 1 1 1 1 1 1 1 1 1 1 1 1 1 1 1 1 1 1 1 1 1 1 1 1 1 1 1 1 1 1 1 
1 1 1 1 1 1 1 1 1 1 1 1 1 1 1 1 1 1 1 1 1 1 1 1 1 1 1 1 1 1 1 1 
1 1 1 1 1 1 1 1 1 1 1 1 1 1 1 1 1 1 1 1 1 1 1 1 1 1 1 1 1 1 1 1 
1 1 1 1 1 1 1 1 1 1 1 1 1 1 1 1 1 1 1 1 1 1 1 1 1 1 1 1 1 1 1 1 
1 1 1 1 1 1 1 1 1 1 1 1 1 1 1 1 1 1 1 1 1 1 1 1 1 1 1 1 1 1 1 1 
1 1 1 1 1 1 1 1 1 1 1 1 1 1 1 1 1 1 1 1 1 1 1 1 1 1 1 1 1 1 1 1 
1 1 1 1 1 1 1 1 1 1 1 1 1 1 1 1 1 1 1 1 1 1 1 1 1 1 1 1 1 1 1 1 
1 1 1 1 1 1 1 1 1 1 1 1 1 1 1 1 1 1 1 1 1 1 1 1 1 1 1 1 1 1 1 1 
1 1 1 1 1 1 1 1 1 1 1 1 1 1 1 1 1 1 1 1 1 1 1 1 1 1 1 1 1 1 1 1 
0.01 0.01 0.01 0.01 0.01 0.01 0.01 0.01 0.01 0.01 0.01 0.01 0.01 0.01 0.01 0.01 0.01 0.01 0.01 0.01 0.01 0.01 0.01 0.01 0.01 0.01 0.01 0.01 0.01 0.01 0.01 0.01 
0.02 0.02 0.02 0.02 0.02 0.02 0.02 0.02 0.02 0.02 0.02 0.02 0.02 0.02 0.02 0.02 0.02 0.02 0.02 0.02 0.02 0.02 0.02 0.02 0.02 0.02 0.02 0.02 0.02 0.02 0.02 0.02 
0.03 0.03 0.03 0.03 0.03 0.03 0.03 0.03 0.03 0.03 0.03 0.03 0.03 0.03 0.03 0.03 0.03 0.03 0.03 0.03 0.03 0.03 0.03 0.03 0.03 0.03 0.03 0.03 0.03 0.03 0.03 0.03 
0.04 0.04 0.04 0.04 0.04 0.04 0.04 0.04 0.04 0.04 0.04 0.04 0.04 0.04 0.04 0.04 0.04 0.04 0.04 0.04 0.04 0.04 0.04 0.04 0.04 0.04 0.04 0.04 0.04 0.04 0.04 0.04 
0.05 0.05 0.05 0.05 0.05 0.05 0.05 0.05 0.05 0.05 0.05 0.05 0.05 0.05 0.05 0.05 0.05 0.05 0.05 0.05 0.05 0.05 0.05 0.05 0.05 0.05 0.05 0.05 0.05 0.05 0.05 0.05 
0.06 0.06 0.06 0.06 0.06 0.06 0.06 0.06 0.06 0.06 0.06 0.06 0.06 0.06 0.06 0.06 0.06 0.06 0.06 0.06 0.06 0.06 0.06 0.06 0.06 0.06 0.06 0.06 0.06 0.06 0.06 0.06 
0.07 0.07 0.07 0.07 0.07 0.07 0.07 0.07 0.07 0.07 0.07 0.07 0.07 0.07 0.07 0.07 0.07 0.07 0.07 0.07 0.07 0.07 0.07 0.07 0.07 0.07 0.07 0.07 0.07 0.07 0.07 0.07 
0.2 0.2 0.2 0.2 0.2 0.2 0.2 0.2 0.2 0.2 0.2 0.2 0.2 0.2 0.2 0.2 0.2 0.2 0.2 0.2 0.2 0.2 0.2 0.2 0.2 0.2 0.2 0.2 0.2 0.2 0.2 0.2 
0.4 0.4 0.4 0.4 0.4 0.4 0.4 0.4 0.4 0.4 0.4 0.4 0.4 0.4 0.4 0.4 0.4 0.4 0.4 0.4 0.4 0.4 0.4 0.4 0.4 0.4 0.4 0.4 0.4 0.4 0.4 0.4 
0.6 0.6 0.6 0.6 0.6 0.6 0.6 0.6 0.6 0.6 0.6 0.6 0.6 0.6 0.6 0.6 0.6 0.6 0.6 0.6 0.6 0.6 0.6 0.6 0.6 0.6 0.6 0.6 0.6 0.6 0.6 0.6 
0.8 0.8 0.8 0.8 0.8 0.8 0.8 0.8 0.8 0.8 0.8 0.8 0.8 0.8 0.8 0.8 0.8 0.8 0.8 0.8 0.8 0.8 0.8 0.8 0.8 0.8 0.8 0.8 0.8 0.8 0.8 0.8 
1 1 1 1 1 1 1 1 1 1 1 1 1 1 1 1 1 1 1 1 1 1 1 1 1 1 1 1 1 1 1 1 
